 
data_qub2 
 
_audit_creation_method            SHELXL-97 
_chemical_name_systematic 
; 
 ? 
; 
_chemical_name_common             ? 
_chemical_melting_point           ? 
_chemical_formula_moiety          ? 
_chemical_formula_sum 
 'C9 H7 F6 N3 O4 S2' 
_chemical_formula_weight          399.30 
 
loop_ 
 _atom_type_symbol 
 _atom_type_description 
 _atom_type_scat_dispersion_real 
 _atom_type_scat_dispersion_imag 
 _atom_type_scat_source 
 'C'  'C'   0.0033   0.0016 
 'International Tables Vol C Tables 4.2.6.8 and 6.1.1.4' 
 'H'  'H'   0.0000   0.0000 
 'International Tables Vol C Tables 4.2.6.8 and 6.1.1.4' 
 'N'  'N'   0.0061   0.0033 
 'International Tables Vol C Tables 4.2.6.8 and 6.1.1.4' 
 'O'  'O'   0.0106   0.0060 
 'International Tables Vol C Tables 4.2.6.8 and 6.1.1.4' 
 'F'  'F'   0.0171   0.0103 
 'International Tables Vol C Tables 4.2.6.8 and 6.1.1.4' 
 'S'  'S'   0.1246   0.1234 
 'International Tables Vol C Tables 4.2.6.8 and 6.1.1.4' 
 
_symmetry_cell_setting            ? 
_symmetry_space_group_name_H-M    ? 
 
loop_ 
 _symmetry_equiv_pos_as_xyz 
 'x, y, z' 
 '-x+1/2, y+1/2, -z+1/2' 
 '-x, -y, -z' 
 'x-1/2, -y-1/2, z-1/2' 
 
_cell_length_a                    11.4431(11) 
_cell_length_b                    11.8766(11) 
_cell_length_c                    12.1955(11) 
_cell_angle_alpha                 90.00 
_cell_angle_beta                  114.779(2) 
_cell_angle_gamma                 90.00 
_cell_volume                      1504.8(2) 
_cell_formula_units_Z             4 
_cell_measurement_temperature     193(2) 
_cell_measurement_reflns_used     ? 
_cell_measurement_theta_min       ? 
_cell_measurement_theta_max       ? 
 
_exptl_crystal_description        ? 
_exptl_crystal_colour             ? 
_exptl_crystal_size_max           0.25 
_exptl_crystal_size_mid           0.19 
_exptl_crystal_size_min           0.05 
_exptl_crystal_density_meas       ? 
_exptl_crystal_density_diffrn     1.762 
_exptl_crystal_density_method     'not measured' 
_exptl_crystal_F_000              800 
_exptl_absorpt_coefficient_mu     0.444 
_exptl_absorpt_correction_type    ? 
_exptl_absorpt_correction_T_min   0.8971 
_exptl_absorpt_correction_T_max   0.9781 
_exptl_absorpt_process_details    ? 
 
_exptl_special_details 
; 
 ? 
; 
 
_diffrn_ambient_temperature       193(2) 
_diffrn_radiation_wavelength      0.77490 
_diffrn_radiation_type            ? 
_diffrn_radiation_source          'fine-focus sealed tube' 
_diffrn_radiation_monochromator   graphite 
_diffrn_measurement_device_type   ? 
_diffrn_measurement_method        ? 
_diffrn_detector_area_resol_mean  ? 
_diffrn_standards_number          ? 
_diffrn_standards_interval_count  ? 
_diffrn_standards_interval_time   ? 
_diffrn_standards_decay_%         ? 
_diffrn_reflns_number             18429 
_diffrn_reflns_av_R_equivalents   0.0752 
_diffrn_reflns_av_sigmaI/netI     0.0784 
_diffrn_reflns_limit_h_min        -16 
_diffrn_reflns_limit_h_max        16 
_diffrn_reflns_limit_k_min        -16 
_diffrn_reflns_limit_k_max        16 
_diffrn_reflns_limit_l_min        -17 
_diffrn_reflns_limit_l_max        17 
_diffrn_reflns_theta_min          2.24 
_diffrn_reflns_theta_max          33.72 
_reflns_number_total              4610 
_reflns_number_gt                 3990 
_reflns_threshold_expression      >2sigma(I) 
 
_computing_data_collection        ? 
_computing_cell_refinement        ? 
_computing_data_reduction         ? 
_computing_structure_solution     'SHELXS-97 (Sheldrick, 1990)' 
_computing_structure_refinement   'SHELXL-97 (Sheldrick, 1997)' 
_computing_molecular_graphics     ? 
_computing_publication_material   ? 
 
_refine_special_details 
; 
 Refinement of F^2^ against ALL reflections.  The weighted R-factor wR and 
 goodness of fit S are based on F^2^, conventional R-factors R are based 
 on F, with F set to zero for negative F^2^. The threshold expression of 
 F^2^ > 2sigma(F^2^) is used only for calculating R-factors(gt) etc. and is 
 not relevant to the choice of reflections for refinement.  R-factors based 
 on F^2^ are statistically about twice as large as those based on F, and R- 
 factors based on ALL data will be even larger. 
; 
 
_refine_ls_structure_factor_coef  Fsqd  
_refine_ls_matrix_type            full 
_refine_ls_weighting_scheme       calc  
_refine_ls_weighting_details 
 'calc w=1/[\s^2^(Fo^2^)+(0.1000P)^2^+0.0000P] where P=(Fo^2^+2Fc^2^)/3' 
_atom_sites_solution_primary      direct 
_atom_sites_solution_secondary    difmap 
_atom_sites_solution_hydrogens    geom 
_refine_ls_hydrogen_treatment     mixed 
_refine_ls_extinction_method      none 
_refine_ls_extinction_coef        ? 
_refine_ls_number_reflns          4610 
_refine_ls_number_parameters      233 
_refine_ls_number_restraints      0 
_refine_ls_R_factor_all           0.1137 
_refine_ls_R_factor_gt            0.1032 
_refine_ls_wR_factor_ref          0.3322 
_refine_ls_wR_factor_gt           0.3157 
_refine_ls_goodness_of_fit_ref    2.299 
_refine_ls_restrained_S_all       2.299 
_refine_ls_shift/su_max           0.397 
_refine_ls_shift/su_mean          0.053 
 
loop_ 
 _atom_site_label 
 _atom_site_type_symbol 
 _atom_site_fract_x 
 _atom_site_fract_y 
 _atom_site_fract_z 
 _atom_site_U_iso_or_equiv 
 _atom_site_adp_type 
 _atom_site_occupancy 
 _atom_site_symmetry_multiplicity 
 _atom_site_calc_flag 
 _atom_site_refinement_flags 
 _atom_site_disorder_assembly 
 _atom_site_disorder_group 
S1 S 0.19406(7) 0.71224(7) 0.15340(6) 0.0401(3) Uani 1 1 d . . . 
O1A O 0.4954(3) 0.7295(3) 0.0851(5) 0.1016(16) Uani 1 1 d . . . 
C1A C 0.1211(4) 0.8339(4) 0.0597(5) 0.0664(11) Uani 1 1 d . . . 
F1 F 0.5003(7) 0.4704(5) 0.1066(4) 0.198(3) Uani 1 1 d . . . 
C1 C 0.9897(3) 0.4568(3) 0.2416(3) 0.0474(7) Uani 1 1 d . . . 
H1A H 0.9856 0.4157 0.1704 0.071 Uiso 1 1 calc R . . 
H1B H 0.9523 0.4106 0.2853 0.071 Uiso 1 1 calc R . . 
H1C H 1.0796 0.4737 0.2946 0.071 Uiso 1 1 calc R . . 
N1 N 0.6646(3) 0.9482(3) 0.0575(3) 0.0540(7) Uani 1 1 d . . . 
S2 S 0.39190(7) 0.66477(7) 0.08510(8) 0.0446(3) Uani 1 1 d . . . 
O2A O 0.1856(4) 0.7341(3) 0.2630(3) 0.0738(9) Uani 1 1 d . . . 
C2A C 0.4642(7) 0.5337(5) 0.1678(4) 0.0829(17) Uani 1 1 d . . . 
F2 F 0.5469(6) 0.5498(5) 0.2729(4) 0.193(4) Uani 1 1 d . . . 
N2 N 0.9164(2) 0.5632(2) 0.20290(19) 0.0333(5) Uani 1 1 d . . . 
C2 C 0.9079(3) 0.6341(3) 0.2853(2) 0.0382(6) Uani 1 1 d . . . 
H3C H 0.935(5) 0.588(4) 0.361(4) 0.064(13) Uiso 1 1 d . . . 
O3A O 0.1221(3) 0.6188(2) 0.0840(3) 0.0605(8) Uani 1 1 d . . . 
F3 F 0.3719(6) 0.4787(4) 0.1862(4) 0.147(2) Uani 1 1 d . . . 
C3 C 0.8430(3) 0.7331(3) 0.2515(3) 0.0390(6) Uani 1 1 d . . . 
H17C H 0.831(5) 0.780(4) 0.315(5) 0.076(15) Uiso 1 1 d . . . 
O4A O 0.3003(2) 0.6245(2) -0.0274(2) 0.0478(6) Uani 1 1 d . . . 
F4A F 0.0029(3) 0.8465(3) 0.0471(4) 0.1046(12) Uani 1 1 d . . . 
C4 C 0.7863(2) 0.7588(2) 0.1291(2) 0.0317(5) Uani 1 1 d . . . 
C5 C 0.7953(3) 0.6871(2) 0.0449(2) 0.0351(5) Uani 1 1 d . . . 
H2C H 0.755(4) 0.706(3) -0.044(4) 0.047(10) Uiso 1 1 d . . . 
C6 C 0.7183(3) 0.8651(3) 0.0888(3) 0.0389(6) Uani 1 1 d . . . 
N7 N 0.3373(3) 0.7216(3) 0.1701(3) 0.0488(7) Uani 1 1 d . . . 
F7A F 0.1225(5) 0.8197(4) -0.0494(4) 0.1310(17) Uani 1 1 d . . . 
C7 C 0.8621(3) 0.5875(2) 0.0854(2) 0.0341(5) Uani 1 1 d . . . 
H7C H 0.879(4) 0.525(3) 0.050(3) 0.050(10) Uiso 1 1 d . . . 
F8A F 0.1799(3) 0.9270(2) 0.1053(4) 0.1087(13) Uani 1 1 d . . . 
 
loop_ 
 _atom_site_aniso_label 
 _atom_site_aniso_U_11 
 _atom_site_aniso_U_22 
 _atom_site_aniso_U_33 
 _atom_site_aniso_U_23 
 _atom_site_aniso_U_13 
 _atom_site_aniso_U_12 
S1 0.0450(5) 0.0431(5) 0.0388(4) -0.0080(3) 0.0241(3) -0.0050(3) 
O1A 0.0651(19) 0.072(2) 0.197(5) -0.042(2) 0.084(3) -0.0317(17) 
C1A 0.053(2) 0.066(3) 0.081(3) 0.015(2) 0.030(2) 0.0039(18) 
F1 0.329(8) 0.159(4) 0.124(3) 0.049(3) 0.114(4) 0.185(5) 
C1 0.0440(15) 0.0397(15) 0.0553(17) 0.0076(13) 0.0178(13) 0.0091(12) 
N1 0.0459(15) 0.0448(15) 0.0687(18) 0.0060(13) 0.0215(13) 0.0054(12) 
S2 0.0354(4) 0.0410(5) 0.0614(5) -0.0093(3) 0.0241(4) -0.0058(3) 
O2A 0.104(3) 0.079(2) 0.0558(15) -0.0142(14) 0.0508(17) 0.0042(19) 
C2A 0.108(4) 0.070(3) 0.058(2) 0.000(2) 0.023(3) 0.036(3) 
F2 0.164(5) 0.177(5) 0.116(3) -0.035(3) -0.061(4) 0.095(4) 
N2 0.0291(9) 0.0333(11) 0.0363(10) -0.0006(8) 0.0127(8) -0.0027(8) 
C2 0.0404(14) 0.0433(15) 0.0286(11) 0.0004(10) 0.0120(10) 0.0000(11) 
O3A 0.0554(14) 0.0591(15) 0.0848(19) -0.0299(14) 0.0469(14) -0.0229(12) 
F3 0.238(6) 0.095(3) 0.118(3) 0.059(2) 0.086(3) 0.037(3) 
C3 0.0420(14) 0.0415(15) 0.0355(13) -0.0069(10) 0.0183(11) -0.0018(11) 
O4A 0.0514(13) 0.0561(14) 0.0431(11) -0.0015(9) 0.0267(10) -0.0011(10) 
F4A 0.0462(14) 0.089(2) 0.168(3) 0.027(2) 0.0348(18) 0.0099(13) 
C4 0.0263(10) 0.0317(11) 0.0348(11) 0.0000(9) 0.0105(9) -0.0006(9) 
C5 0.0347(12) 0.0371(13) 0.0310(11) 0.0005(9) 0.0113(9) -0.0018(10) 
C6 0.0341(12) 0.0387(14) 0.0423(13) -0.0004(11) 0.0144(10) -0.0007(10) 
N7 0.0382(12) 0.0537(16) 0.0499(14) -0.0202(12) 0.0139(11) -0.0052(11) 
F7A 0.169(4) 0.149(4) 0.077(2) 0.053(2) 0.053(2) 0.053(3) 
C7 0.0351(11) 0.0350(13) 0.0321(11) -0.0061(9) 0.0139(9) -0.0043(10) 
F8A 0.0664(16) 0.0495(14) 0.211(4) 0.025(2) 0.060(2) 0.0003(12) 
 
_geom_special_details 
; 
 All esds (except the esd in the dihedral angle between two l.s. planes) 
 are estimated using the full covariance matrix.  The cell esds are taken 
 into account individually in the estimation of esds in distances, angles 
 and torsion angles; correlations between esds in cell parameters are only 
 used when they are defined by crystal symmetry.  An approximate (isotropic) 
 treatment of cell esds is used for estimating esds involving l.s. planes. 
; 
 
loop_ 
 _geom_bond_atom_site_label_1 
 _geom_bond_atom_site_label_2 
 _geom_bond_distance 
 _geom_bond_site_symmetry_2 
 _geom_bond_publ_flag 
S1 O2A 1.404(3) . ? 
S1 O3A 1.429(2) . ? 
S1 N7 1.569(3) . ? 
S1 C1A 1.814(4) . ? 
O1A S2 1.412(3) . ? 
C1A F4A 1.304(6) . ? 
C1A F8A 1.293(6) . ? 
C1A F7A 1.348(7) . ? 
F1 C2A 1.245(7) . ? 
C1 N2 1.480(4) . ? 
N1 C6 1.140(4) . ? 
S2 O4A 1.415(3) . ? 
S2 N7 1.569(3) . ? 
S2 C2A 1.851(5) . ? 
C2A F2 1.248(6) . ? 
C2A F3 1.338(9) . ? 
N2 C7 1.332(3) . ? 
N2 C2 1.345(4) . ? 
C2 C3 1.358(4) . ? 
C3 C4 1.389(4) . ? 
C4 C5 1.371(4) . ? 
C4 C6 1.456(4) . ? 
C5 C7 1.382(4) . ? 
 
loop_ 
 _geom_angle_atom_site_label_1 
 _geom_angle_atom_site_label_2 
 _geom_angle_atom_site_label_3 
 _geom_angle 
 _geom_angle_site_symmetry_1 
 _geom_angle_site_symmetry_3 
 _geom_angle_publ_flag 
O2A S1 O3A 117.1(2) . . ? 
O2A S1 N7 110.39(19) . . ? 
O3A S1 N7 116.32(15) . . ? 
O2A S1 C1A 104.8(2) . . ? 
O3A S1 C1A 104.3(2) . . ? 
N7 S1 C1A 101.8(2) . . ? 
F4A C1A F8A 106.2(4) . . ? 
F4A C1A F7A 109.8(5) . . ? 
F8A C1A F7A 108.2(4) . . ? 
F4A C1A S1 110.2(3) . . ? 
F8A C1A S1 113.1(4) . . ? 
F7A C1A S1 109.2(4) . . ? 
O1A S2 O4A 117.6(2) . . ? 
O1A S2 N7 109.39(19) . . ? 
O4A S2 N7 116.59(14) . . ? 
O1A S2 C2A 105.9(3) . . ? 
O4A S2 C2A 103.0(2) . . ? 
N7 S2 C2A 102.3(2) . . ? 
F2 C2A F1 114.1(6) . . ? 
F2 C2A F3 102.4(6) . . ? 
F1 C2A F3 106.8(7) . . ? 
F2 C2A S2 113.8(5) . . ? 
F1 C2A S2 111.4(4) . . ? 
F3 C2A S2 107.3(4) . . ? 
C7 N2 C2 121.4(2) . . ? 
C7 N2 C1 118.3(2) . . ? 
C2 N2 C1 120.3(2) . . ? 
N2 C2 C3 121.0(2) . . ? 
C2 C3 C4 117.8(3) . . ? 
C5 C4 C3 121.3(2) . . ? 
C5 C4 C6 118.9(2) . . ? 
C3 C4 C6 119.8(2) . . ? 
C7 C5 C4 117.9(2) . . ? 
N1 C6 C4 179.7(4) . . ? 
S2 N7 S1 124.54(16) . . ? 
N2 C7 C5 120.6(2) . . ? 
 
_diffrn_measured_fraction_theta_max    0.995 
_diffrn_reflns_theta_full              33.72 
_diffrn_measured_fraction_theta_full   0.995 
_refine_diff_density_max    1.196 
_refine_diff_density_min   -1.003 
_refine_diff_density_rms    0.214 
