 
data_qub4 
 
_audit_creation_method            SHELXL-97 
_chemical_name_systematic 
; 
 ? 
; 
_chemical_name_common             ? 
_chemical_melting_point           ? 
_chemical_formula_moiety          ? 
_chemical_formula_sum 
 'C20 H17 F6 N3 O4 S2' 
_chemical_formula_weight          541.49 
 
loop_ 
 _atom_type_symbol 
 _atom_type_description 
 _atom_type_scat_dispersion_real 
 _atom_type_scat_dispersion_imag 
 _atom_type_scat_source 
 'C'  'C'   0.0033   0.0016 
 'International Tables Vol C Tables 4.2.6.8 and 6.1.1.4' 
 'H'  'H'   0.0000   0.0000 
 'International Tables Vol C Tables 4.2.6.8 and 6.1.1.4' 
 'N'  'N'   0.0061   0.0033 
 'International Tables Vol C Tables 4.2.6.8 and 6.1.1.4' 
 'O'  'O'   0.0106   0.0060 
 'International Tables Vol C Tables 4.2.6.8 and 6.1.1.4' 
 'F'  'F'   0.0171   0.0103 
 'International Tables Vol C Tables 4.2.6.8 and 6.1.1.4' 
 'S'  'S'   0.1246   0.1234 
 'International Tables Vol C Tables 4.2.6.8 and 6.1.1.4' 
 
_symmetry_cell_setting            ? 
_symmetry_space_group_name_H-M    ? 
 
loop_ 
 _symmetry_equiv_pos_as_xyz 
 'x, y, z' 
 '-x, y+1/2, -z+1/2' 
 '-x, -y, -z' 
 'x, -y-1/2, z-1/2' 
 
_cell_length_a                    10.8070(11) 
_cell_length_b                    15.6746(16) 
_cell_length_c                    13.6445(14) 
_cell_angle_alpha                 90.00 
_cell_angle_beta                  90.318(2) 
_cell_angle_gamma                 90.00 
_cell_volume                      2311.3(4) 
_cell_formula_units_Z             4 
_cell_measurement_temperature     193(2) 
_cell_measurement_reflns_used     ? 
_cell_measurement_theta_min       ? 
_cell_measurement_theta_max       ? 
 
_exptl_crystal_description        ? 
_exptl_crystal_colour             ? 
_exptl_crystal_size_max           0.20 
_exptl_crystal_size_mid           0.11 
_exptl_crystal_size_min           0.04 
_exptl_crystal_density_meas       ? 
_exptl_crystal_density_diffrn     1.556 
_exptl_crystal_density_method     'not measured' 
_exptl_crystal_F_000              1104 
_exptl_absorpt_coefficient_mu     0.312 
_exptl_absorpt_correction_type    ? 
_exptl_absorpt_correction_T_min   0.9402 
_exptl_absorpt_correction_T_max   0.9876 
_exptl_absorpt_process_details    ? 
 
_exptl_special_details 
; 
 ? 
; 
 
_diffrn_ambient_temperature       193(2) 
_diffrn_radiation_wavelength      0.77490 
_diffrn_radiation_type            ? 
_diffrn_radiation_source          'fine-focus sealed tube' 
_diffrn_radiation_monochromator   graphite 
_diffrn_measurement_device_type   ? 
_diffrn_measurement_method        ? 
_diffrn_detector_area_resol_mean  ? 
_diffrn_standards_number          ? 
_diffrn_standards_interval_count  ? 
_diffrn_standards_interval_time   ? 
_diffrn_standards_decay_%         ? 
_diffrn_reflns_number             28617 
_diffrn_reflns_av_R_equivalents   0.0510 
_diffrn_reflns_av_sigmaI/netI     0.0368 
_diffrn_reflns_limit_h_min        -14 
_diffrn_reflns_limit_h_max        14 
_diffrn_reflns_limit_k_min        -20 
_diffrn_reflns_limit_k_max        20 
_diffrn_reflns_limit_l_min        -18 
_diffrn_reflns_limit_l_max        18 
_diffrn_reflns_theta_min          2.05 
_diffrn_reflns_theta_max          31.10 
_reflns_number_total              5724 
_reflns_number_gt                 4662 
_reflns_threshold_expression      >2sigma(I) 
 
_computing_data_collection        ? 
_computing_cell_refinement        ? 
_computing_data_reduction         ? 
_computing_structure_solution     'SHELXS-97 (Sheldrick, 1990)' 
_computing_structure_refinement   'SHELXL-97 (Sheldrick, 1997)' 
_computing_molecular_graphics     ? 
_computing_publication_material   ? 
 
_refine_special_details 
; 
 Refinement of F^2^ against ALL reflections.  The weighted R-factor wR and 
 goodness of fit S are based on F^2^, conventional R-factors R are based 
 on F, with F set to zero for negative F^2^. The threshold expression of 
 F^2^ > 2sigma(F^2^) is used only for calculating R-factors(gt) etc. and is 
 not relevant to the choice of reflections for refinement.  R-factors based 
 on F^2^ are statistically about twice as large as those based on F, and R- 
 factors based on ALL data will be even larger. 
; 
 
_refine_ls_structure_factor_coef  Fsqd  
_refine_ls_matrix_type            full 
_refine_ls_weighting_scheme       calc  
_refine_ls_weighting_details 
 'calc w=1/[\s^2^(Fo^2^)+(0.1584P)^2^+0.0000P] where P=(Fo^2^+2Fc^2^)/3' 
_atom_sites_solution_primary      direct 
_atom_sites_solution_secondary    difmap 
_atom_sites_solution_hydrogens    geom 
_refine_ls_hydrogen_treatment     mixed 
_refine_ls_extinction_method      none 
_refine_ls_extinction_coef        ? 
_refine_ls_number_reflns          5724 
_refine_ls_number_parameters      348 
_refine_ls_number_restraints      0 
_refine_ls_R_factor_all           0.0921 
_refine_ls_R_factor_gt            0.0740 
_refine_ls_wR_factor_ref          0.2626 
_refine_ls_wR_factor_gt           0.2433 
_refine_ls_goodness_of_fit_ref    1.383 
_refine_ls_restrained_S_all       1.383 
_refine_ls_shift/su_max           0.024 
_refine_ls_shift/su_mean          0.001 
 
loop_ 
 _atom_site_label 
 _atom_site_type_symbol 
 _atom_site_fract_x 
 _atom_site_fract_y 
 _atom_site_fract_z 
 _atom_site_U_iso_or_equiv 
 _atom_site_adp_type 
 _atom_site_occupancy 
 _atom_site_symmetry_multiplicity 
 _atom_site_calc_flag 
 _atom_site_refinement_flags 
 _atom_site_disorder_assembly 
 _atom_site_disorder_group 
N1A N 0.7213(2) 0.22950(15) 0.73737(19) 0.0446(5) Uani 1 1 d . . . 
S1 S 0.67809(6) 0.13961(4) 0.69970(5) 0.0389(2) Uani 1 1 d . . . 
O3A O 0.7809(2) 0.09968(16) 0.65447(17) 0.0596(6) Uani 1 1 d . . . 
O4A O 0.5593(2) 0.13526(14) 0.65484(18) 0.0551(6) Uani 1 1 d . . . 
C2A C 0.6594(3) 0.0808(2) 0.8136(3) 0.0563(8) Uani 1 1 d . . . 
F4A F 0.7574(3) 0.08626(18) 0.87091(18) 0.0846(7) Uani 1 1 d . . . 
F5A F 0.5627(2) 0.10982(18) 0.86253(18) 0.0827(8) Uani 1 1 d . . . 
F6A F 0.6381(3) -0.00078(14) 0.7933(2) 0.0873(8) Uani 1 1 d . . . 
S2 S 0.63990(6) 0.31231(4) 0.74129(6) 0.0454(2) Uani 1 1 d . . . 
O O 0.6990(3) 0.37281(15) 0.8028(2) 0.0658(7) Uani 1 1 d . . . 
O2A O 0.5099(2) 0.29928(16) 0.7510(2) 0.0682(7) Uani 1 1 d . . . 
C1A C 0.6593(4) 0.3561(2) 0.6182(3) 0.0645(9) Uani 1 1 d . . . 
F1A F 0.5956(3) 0.42736(18) 0.6084(3) 0.1050(10) Uani 1 1 d . . . 
F2A F 0.6199(3) 0.30116(19) 0.5508(2) 0.0967(9) Uani 1 1 d . . . 
F3A F 0.7760(2) 0.37451(19) 0.6013(2) 0.0848(8) Uani 1 1 d . . . 
N2C N 0.80519(19) 0.64752(12) 0.79470(13) 0.0311(4) Uani 1 1 d . . . 
C1C C 0.9285(2) 0.66030(17) 0.79620(18) 0.0364(5) Uani 1 1 d . . . 
C6C C 0.9759(2) 0.74099(17) 0.79622(18) 0.0369(5) Uani 1 1 d . . . 
C7C C 0.8955(2) 0.81020(14) 0.79424(15) 0.0307(5) Uani 1 1 d . . . 
C5C C 0.7687(2) 0.79602(16) 0.79202(17) 0.0337(5) Uani 1 1 d . . . 
C2C C 0.7261(2) 0.71327(16) 0.79291(18) 0.0343(5) Uani 1 1 d . . . 
C4C C 0.9437(2) 0.89575(17) 0.79398(18) 0.0378(5) Uani 1 1 d . . . 
N1C N 0.9818(3) 0.96356(17) 0.7936(2) 0.0520(6) Uani 1 1 d . . . 
C3C C 0.7563(3) 0.55967(17) 0.7944(2) 0.0424(6) Uani 1 1 d . . . 
H1C H 0.978(4) 0.613(3) 0.809(3) 0.057(10) Uiso 1 1 d . . . 
H7C H 1.057(4) 0.754(3) 0.798(3) 0.059(10) Uiso 1 1 d . . . 
H9C H 0.715(3) 0.841(2) 0.797(2) 0.045(8) Uiso 1 1 d . . . 
H6C H 0.644(3) 0.697(2) 0.788(2) 0.049(9) Uiso 1 1 d . . . 
H3C2 H 0.682(9) 0.565(6) 0.762(6) 0.19(4) Uiso 1 1 d . . . 
H2C3 H 0.789(5) 0.530(3) 0.847(4) 0.083(14) Uiso 1 1 d . . . 
H3C1 H 0.808(6) 0.528(5) 0.756(4) 0.115(19) Uiso 1 1 d . . . 
C6 C 1.0091(7) 0.8689(4) 0.5562(3) 0.0988(18) Uani 1 1 d . . .
C1 C 1.0192(6) 0.7882(4) 0.5517(3) 0.0996(19) Uani 1 1 d . . .
C9 C 0.9072(5) 0.7356(3) 0.5436(2) 0.0812(15) Uani 1 1 d . . .
C10 C 0.9290(5) 0.6431(3) 0.5390(3) 0.0804(13) Uani 1 1 d . . .
C5 C 0.8288(5) 0.5912(2) 0.5313(2) 0.0667(10) Uani 1 1 d . . .
C4 C 0.7130(5) 0.6244(4) 0.5295(3) 0.0765(12) Uani 1 1 d . . .
C2 C 0.6894(5) 0.7090(4) 0.5343(3) 0.0846(14) Uani 1 1 d . . .
C8 C 0.7903(5) 0.7638(3) 0.5416(2) 0.0710(12) Uani 1 1 d . . .
C7 C 0.8797(6) 0.9062(3) 0.5541(2) 0.0818(15) Uani 1 1 d . . .
C3 C 0.7782(6) 0.8617(4) 0.5480(3) 0.0943(17) Uani 1 1 d . . .
C11 C 0.6612(6) 0.8925(4) 0.5478(3) 0.0999(17) Uani 1 1 d . . .
H6A H 1.0801 0.9045 0.5608 0.119 Uiso 1 1 calc R . .
H1A H 1.0986 0.7621 0.5535 0.119 Uiso 1 1 calc R . .
H10A H 1.0104 0.6203 0.5414 0.096 Uiso 1 1 calc R . .
H5A H 0.8399 0.5312 0.5270 0.080 Uiso 1 1 calc R . .
H11 H 0.631(5) 0.590(3) 0.518(4) 0.089(15) Uiso 1 1 d . . .
H2A H 0.6071 0.7302 0.5327 0.101 Uiso 1 1 calc R . .
H7A H 0.8721 0.9665 0.5574 0.098 Uiso 1 1 calc R . .
H11A H 0.6633 0.9548 0.5524 0.150 Uiso 1 1 calc R . .
H11B H 0.6161 0.8692 0.6039 0.150 Uiso 1 1 calc R . .
H11C H 0.6193 0.8756 0.4869 0.150 Uiso 1 1 calc R . .

loop_ 
 _atom_site_aniso_label 
 _atom_site_aniso_U_11 
 _atom_site_aniso_U_22 
 _atom_site_aniso_U_33 
 _atom_site_aniso_U_23 
 _atom_site_aniso_U_13 
 _atom_site_aniso_U_12 
O 0.0624(15) 0.0400(12) 0.0948(17) -0.0196(12) -0.0028(13) -0.0123(11) 
S1 0.0336(4) 0.0298(4) 0.0535(4) -0.0027(2) 0.0026(3) 0.0008(2) 
N1C 0.0523(15) 0.0365(13) 0.0670(14) 0.0034(10) -0.0006(11) -0.0122(11) 
C1C 0.0307(12) 0.0296(12) 0.0489(12) -0.0039(9) 0.0019(9) 0.0057(9) 
C1A 0.060(2) 0.0388(17) 0.095(2) 0.0129(15) -0.0113(18) -0.0040(14) 
C1 0.133(5) 0.105(4) 0.061(2) -0.009(2) 0.005(2) -0.046(4) 
N1A 0.0292(11) 0.0316(12) 0.0729(14) -0.0014(10) -0.0040(10) -0.0025(8) 
F1A 0.096(2) 0.0546(15) 0.164(3) 0.0405(17) -0.0250(19) 0.0123(13) 
S2 0.0310(4) 0.0279(4) 0.0772(5) -0.0065(3) 0.0008(3) -0.0047(2) 
N2C 0.0307(10) 0.0238(9) 0.0387(9) -0.0031(7) 0.0020(7) -0.0001(7) 
C2C 0.0265(11) 0.0291(11) 0.0471(11) -0.0007(9) -0.0004(9) 0.0006(9) 
O2A 0.0315(11) 0.0420(12) 0.131(2) -0.0195(13) 0.0125(12) -0.0028(9) 
C2A 0.062(2) 0.0391(16) 0.0683(17) 0.0043(13) 0.0077(15) 0.0014(14) 
C2 0.094(3) 0.109(4) 0.0511(17) 0.009(2) 0.0029(18) 0.007(3) 
F2A 0.137(3) 0.0718(17) 0.0812(15) 0.0159(12) -0.0372(16) -0.0193(17) 
C3C 0.0449(15) 0.0249(12) 0.0576(14) -0.0027(10) 0.0033(11) -0.0041(10) 
C3 0.107(4) 0.128(5) 0.0478(18) 0.002(2) 0.003(2) 0.004(4) 
O3A 0.0538(14) 0.0536(14) 0.0718(13) -0.0080(10) 0.0173(11) 0.0112(10) 
F3A 0.0700(16) 0.0832(18) 0.1013(17) 0.0272(14) 0.0087(13) -0.0162(13) 
C4C 0.0368(13) 0.0326(13) 0.0439(11) -0.0005(9) 0.0000(9) -0.0044(10) 
C4 0.090(3) 0.087(3) 0.0526(17) 0.0029(18) 0.0043(18) -0.024(3) 
O4A 0.0448(12) 0.0429(12) 0.0774(14) -0.0111(10) -0.0147(10) -0.0045(9) 
F4A 0.0934(19) 0.0848(17) 0.0754(13) 0.0185(12) -0.0188(12) 0.0118(14) 
C5C 0.0311(12) 0.0260(11) 0.0439(11) -0.0008(8) -0.0012(8) 0.0009(9) 
C5 0.107(3) 0.0428(17) 0.0504(15) 0.0010(13) 0.0089(17) -0.0006(19) 
F5A 0.0850(18) 0.0801(17) 0.0835(14) 0.0018(12) 0.0415(13) -0.0004(13) 
C6C 0.0245(11) 0.0359(13) 0.0504(12) -0.0050(9) 0.0027(9) -0.0020(9) 
C6 0.160(6) 0.085(4) 0.0509(19) -0.0006(19) 0.005(2) -0.008(4) 
F6A 0.116(2) 0.0364(12) 0.1094(19) 0.0108(11) 0.0186(15) -0.0076(12) 
C7C 0.0318(11) 0.0278(11) 0.0323(9) 0.0006(7) -0.0002(8) -0.0024(8) 
C7 0.138(5) 0.058(2) 0.0486(16) -0.0008(15) -0.005(2) -0.029(3) 
C8 0.120(4) 0.060(2) 0.0334(12) -0.0009(12) 0.0068(16) 0.011(2) 
C9 0.110(4) 0.100(3) 0.0335(13) -0.0013(15) 0.0010(16) -0.055(3) 
C10 0.092(3) 0.100(4) 0.0492(17) 0.0021(18) 0.0017(17) 0.002(3) 
C11 0.116(4) 0.124(5) 0.060(2) 0.005(2) 0.004(2) 0.017(4) 
 
_geom_special_details 
; 
 All esds (except the esd in the dihedral angle between two l.s. planes) 
 are estimated using the full covariance matrix.  The cell esds are taken 
 into account individually in the estimation of esds in distances, angles 
 and torsion angles; correlations between esds in cell parameters are only 
 used when they are defined by crystal symmetry.  An approximate (isotropic) 
 treatment of cell esds is used for estimating esds involving l.s. planes. 
; 
 
loop_ 
 _geom_bond_atom_site_label_1 
 _geom_bond_atom_site_label_2 
 _geom_bond_distance 
 _geom_bond_site_symmetry_2 
 _geom_bond_publ_flag 
O S2 1.416(2) . ? 
S1 O3A 1.420(2) . ? 
S1 O4A 1.421(2) . ? 
S1 N1A 1.570(2) . ? 
S1 C2A 1.819(3) . ? 
N1C C4C 1.140(4) . ? 
C1C N2C 1.348(3) . ? 
C1C C6C 1.365(4) . ? 
C1A F3A 1.315(4) . ? 
C1A F1A 1.318(4) . ? 
C1A F2A 1.328(5) . ? 
C1A S2 1.828(4) . ? 
C1 C6 1.270(9) . ? 
C1 C9 1.468(7) . ? 
N1A S2 1.569(2) . ? 
S2 O2A 1.426(2) . ? 
N2C C2C 1.339(3) . ? 
N2C C3C 1.475(3) . ? 
C2C C5C 1.376(3) . ? 
C2A F4A 1.317(5) . ? 
C2A F5A 1.324(4) . ? 
C2A F6A 1.328(4) . ? 
C2 C4 1.351(8) . ? 
C2 C8 1.392(7) . ? 
C3 C7 1.302(7) . ? 
C3 C11 1.354(8) . ? 
C3 C8 1.542(8) . ? 
C4C C7C 1.439(3) . ? 
C4 C5 1.356(7) . ? 
C5C C7C 1.388(3) . ? 
C5 C10 1.357(6) . ? 
C6C C7C 1.390(3) . ? 
C6 C7 1.516(9) . ? 
C8 C9 1.338(7) . ? 
C9 C10 1.472(7) . ? 
 
loop_ 
 _geom_angle_atom_site_label_1 
 _geom_angle_atom_site_label_2 
 _geom_angle_atom_site_label_3 
 _geom_angle 
 _geom_angle_site_symmetry_1 
 _geom_angle_site_symmetry_3 
 _geom_angle_publ_flag 
O3A S1 O4A 119.95(15) . . ? 
O3A S1 N1A 107.81(14) . . ? 
O4A S1 N1A 116.77(13) . . ? 
O3A S1 C2A 103.82(16) . . ? 
O4A S1 C2A 103.84(16) . . ? 
N1A S1 C2A 102.10(15) . . ? 
N2C C1C C6C 120.6(2) . . ? 
F3A C1A F1A 107.3(3) . . ? 
F3A C1A F2A 109.0(4) . . ? 
F1A C1A F2A 108.3(4) . . ? 
F3A C1A S2 111.0(3) . . ? 
F1A C1A S2 110.4(3) . . ? 
F2A C1A S2 110.7(2) . . ? 
C6 C1 C9 119.4(7) . . ? 
S2 N1A S1 126.00(15) . . ? 
O S2 O2A 118.80(17) . . ? 
O S2 N1A 108.85(15) . . ? 
O2A S2 N1A 115.93(14) . . ? 
O S2 C1A 103.87(18) . . ? 
O2A S2 C1A 104.90(19) . . ? 
N1A S2 C1A 102.25(16) . . ? 
C2C N2C C1C 121.1(2) . . ? 
C2C N2C C3C 119.3(2) . . ? 
C1C N2C C3C 119.5(2) . . ? 
N2C C2C C5C 120.8(2) . . ? 
F4A C2A F5A 108.2(3) . . ? 
F4A C2A F6A 108.9(3) . . ? 
F5A C2A F6A 107.4(3) . . ? 
F4A C2A S1 112.4(3) . . ? 
F5A C2A S1 110.4(2) . . ? 
F6A C2A S1 109.3(2) . . ? 
C4 C2 C8 117.5(5) . . ? 
C7 C3 C11 126.6(7) . . ? 
C7 C3 C8 117.7(5) . . ? 
C11 C3 C8 115.7(6) . . ? 
N1C C4C C7C 179.9(3) . . ? 
C2 C4 C5 123.3(5) . . ? 
C2C C5C C7C 118.7(2) . . ? 
C4 C5 C10 120.5(4) . . ? 
C1C C6C C7C 119.3(2) . . ? 
C1 C6 C7 117.6(6) . . ? 
C5C C7C C6C 119.5(2) . . ? 
C5C C7C C4C 120.4(2) . . ? 
C6C C7C C4C 120.1(2) . . ? 
C3 C7 C6 124.8(5) . . ? 
C9 C8 C2 122.4(4) . . ? 
C9 C8 C3 114.1(5) . . ? 
C2 C8 C3 123.5(5) . . ? 
C8 C9 C1 126.4(6) . . ? 
C8 C9 C10 118.4(4) . . ? 
C1 C9 C10 115.2(6) . . ? 
C5 C10 C9 117.8(5) . . ? 
 
_diffrn_measured_fraction_theta_max    0.998 
_diffrn_reflns_theta_full              31.10 
_diffrn_measured_fraction_theta_full   0.998 
_refine_diff_density_max    1.561 
_refine_diff_density_min   -0.877 
_refine_diff_density_rms    0.251 
